row=10;
column=10;
Board=[|1,1,1,0,1,1,1,1,0,1|1,0,1,0,0,0,0,0,0,0|0,0,0,0,0,0,0,0,0,0|1,0,0,0,0,0,1,0,0,0|0,0,0,0,0,0,0,0,0,0|0,0,0,0,0,1,0,0,0,0|1,0,0,0,0,0,0,0,0,0|0,0,0,0,0,0,0,0,1,0|0,0,0,1,0,0,0,0,0,0|0,0,0,0,0,0,0,0,0,0|];
right = [2,2,1,0,2,1,2,3,2,1];
bottom = [2,1,1,2,3,1,1,2,2,1];
